172	32	4	137	
10	10	10	10

0	0	0	0	0	0	4	1	28	29	30
1	1	1	0	1	4	1	2
2	0	3	1	2	4	1	3
3	0	4	3	3	3	1	4
4	3	2	5	0	2	1	5
5	6	8	0	7	8	1	6
6	4	5	5	0	1	1	7
7	2	4	0	3	2	2	27	8
8	6	4	4	0	10	1	9
9	0	4	6	4	10	1	10
10	0	4	7	7	8	1	11
11	0	5	1	1	9	2	20	12
12	4	4	0	4	7	1	13
13	7	3	5	0	8	1	14
14	7	4	0	4	7	2	26	15
15	0	4	4	6	7	1	16
16	2	0	3	1	9	1	17
17	2	2	4	0	8	1	18
18	3	4	0	8	5	1	19
19	3	4	3	0	3	1	21
20	0	4	4	3	8	1	21
21	3	0	4	4	10	1	22
22	8	4	4	0	8	1	23
23	6	0	5	3	1	1	24
24	4	6	0	5	2	1	25
25	0	3	3	4	1	1	31
26	0	1	4	2	1	1	31
27	3	0	4	7	9	1	31
28	4	5	0	5	1	1	31
29	3	8	5	0	7	1	31
30	3	0	4	4	9	1	31
31	0	0	0	0	0	0
